p cnf 1430
-24 -444
-25 -447
-26 -450
-27 -453
-28 -456
-29 -459
-30 -462
-31 -465
-32 -468
-33 -471
-34 -474
-35 -477
-36 -480
-37 -483
-38 -486
-39 -489
-40 -492
-41 -495
-42 -498
-43 -501
-44 -504
-45 -507
-46 -510
-47 511
-48 512
-49 513
-50 514
-51 515
-52 516
-53 517
-54 518
-55 -25
-55 -26
25 26 55
-56 -27
-56 -28
27 28 56
-57 -29
-57 -30
29 30 57
-58 -31
-58 -32
31 32 58
-59 -33
-59 -34
33 34 59
-60 -35
-60 -36
35 36 60
-61 -37
-61 -38
37 38 61
-62 -39
-62 -40
39 40 62
-63 -41
-63 -42
41 42 63
-64 -43
-64 -44
43 44 64
-65 -45
-65 -46
45 46 65
-66 -47
-66 -48
47 48 66
-67 -49
-67 -50
49 50 67
-68 -51
-68 -52
51 52 68
-69 -53
-69 -54
53 54 69
-70 55
-70 56
-55 -56 70
-71 57
-71 58
-57 -58 71
-72 59
-72 60
-59 -60 72
-73 61
-73 62
-61 -62 73
-74 63
-74 64
-63 -64 74
-75 65
-75 66
-65 -66 75
-76 67
-76 68
-67 -68 76
-77 70
-77 71
-70 -71 77
-78 72
-78 73
-72 -73 78
-79 74
-79 75
-74 -75 79
-80 69
-80 76
-69 -76 80
-81 77
-81 78
-77 -78 81
-82 79
-82 80
-79 -80 82
-83 81
-83 82
-81 -82 83
-84 -24
-84 25
24 -25 84
-85 24
-85 -25
-24 25 85
-86 -84
-86 -85
84 85 86
-87 24
-87 25
-24 -25 87
-88 -24
-88 -86
24 86 88
-89 24
-89 86
-24 -86 89
-90 -88
-90 -89
88 89 90
-91 24
-91 -86
-24 86 91
-92 -87
-92 -91
87 91 92
-93 -25
-93 26
25 -26 93
-94 25
-94 -26
-25 26 94
-95 -93
-95 -94
93 94 95
-96 25
-96 26
-25 -26 96
-97 92
-97 -95
-92 95 97
-98 -92
-98 95
92 -95 98
-99 -97
-99 -98
97 98 99
-100 -92
-100 -95
92 95 100
-101 -96
-101 -100
96 100 101
-102 -26
-102 27
26 -27 102
-103 26
-103 -27
-26 27 103
-104 -102
-104 -103
102 103 104
-105 26
-105 27
-26 -27 105
-106 101
-106 -104
-101 104 106
-107 -101
-107 104
101 -104 107
-108 -106
-108 -107
106 107 108
-109 -101
-109 -104
101 104 109
-110 -105
-110 -109
105 109 110
-111 -27
-111 28
27 -28 111
-112 27
-112 -28
-27 28 112
-113 -111
-113 -112
111 112 113
-114 27
-114 28
-27 -28 114
-115 110
-115 -113
-110 113 115
-116 -110
-116 113
110 -113 116
-117 -115
-117 -116
115 116 117
-118 -110
-118 -113
110 113 118
-119 -114
-119 -118
114 118 119
-120 -28
-120 29
28 -29 120
-121 28
-121 -29
-28 29 121
-122 -120
-122 -121
120 121 122
-123 28
-123 29
-28 -29 123
-124 119
-124 -122
-119 122 124
-125 -119
-125 122
119 -122 125
-126 -124
-126 -125
124 125 126
-127 -119
-127 -122
119 122 127
-128 -123
-128 -127
123 127 128
-129 -29
-129 30
29 -30 129
-130 29
-130 -30
-29 30 130
-131 -129
-131 -130
129 130 131
-132 29
-132 30
-29 -30 132
-133 128
-133 -131
-128 131 133
-134 -128
-134 131
128 -131 134
-135 -133
-135 -134
133 134 135
-136 -128
-136 -131
128 131 136
-137 -132
-137 -136
132 136 137
-138 -30
-138 31
30 -31 138
-139 30
-139 -31
-30 31 139
-140 -138
-140 -139
138 139 140
-141 30
-141 31
-30 -31 141
-142 137
-142 -140
-137 140 142
-143 -137
-143 140
137 -140 143
-144 -142
-144 -143
142 143 144
-145 -137
-145 -140
137 140 145
-146 -141
-146 -145
141 145 146
-147 -31
-147 32
31 -32 147
-148 31
-148 -32
-31 32 148
-149 -147
-149 -148
147 148 149
-150 31
-150 32
-31 -32 150
-151 146
-151 -149
-146 149 151
-152 -146
-152 149
146 -149 152
-153 -151
-153 -152
151 152 153
-154 -146
-154 -149
146 149 154
-155 -150
-155 -154
150 154 155
-156 -32
-156 33
32 -33 156
-157 32
-157 -33
-32 33 157
-158 -156
-158 -157
156 157 158
-159 32
-159 33
-32 -33 159
-160 155
-160 -158
-155 158 160
-161 -155
-161 158
155 -158 161
-162 -160
-162 -161
160 161 162
-163 -155
-163 -158
155 158 163
-164 -159
-164 -163
159 163 164
-165 -33
-165 34
33 -34 165
-166 33
-166 -34
-33 34 166
-167 -165
-167 -166
165 166 167
-168 33
-168 34
-33 -34 168
-169 164
-169 -167
-164 167 169
-170 -164
-170 167
164 -167 170
-171 -169
-171 -170
169 170 171
-172 -164
-172 -167
164 167 172
-173 -168
-173 -172
168 172 173
-174 -34
-174 35
34 -35 174
-175 34
-175 -35
-34 35 175
-176 -174
-176 -175
174 175 176
-177 34
-177 35
-34 -35 177
-178 173
-178 -176
-173 176 178
-179 -173
-179 176
173 -176 179
-180 -178
-180 -179
178 179 180
-181 -173
-181 -176
173 176 181
-182 -177
-182 -181
177 181 182
-183 -35
-183 36
35 -36 183
-184 35
-184 -36
-35 36 184
-185 -183
-185 -184
183 184 185
-186 35
-186 36
-35 -36 186
-187 182
-187 -185
-182 185 187
-188 -182
-188 185
182 -185 188
-189 -187
-189 -188
187 188 189
-190 -182
-190 -185
182 185 190
-191 -186
-191 -190
186 190 191
-192 -36
-192 37
36 -37 192
-193 36
-193 -37
-36 37 193
-194 -192
-194 -193
192 193 194
-195 36
-195 37
-36 -37 195
-196 191
-196 -194
-191 194 196
-197 -191
-197 194
191 -194 197
-198 -196
-198 -197
196 197 198
-199 -191
-199 -194
191 194 199
-200 -195
-200 -199
195 199 200
-201 -37
-201 38
37 -38 201
-202 37
-202 -38
-37 38 202
-203 -201
-203 -202
201 202 203
-204 37
-204 38
-37 -38 204
-205 200
-205 -203
-200 203 205
-206 -200
-206 203
200 -203 206
-207 -205
-207 -206
205 206 207
-208 -200
-208 -203
200 203 208
-209 -204
-209 -208
204 208 209
-210 -38
-210 39
38 -39 210
-211 38
-211 -39
-38 39 211
-212 -210
-212 -211
210 211 212
-213 38
-213 39
-38 -39 213
-214 209
-214 -212
-209 212 214
-215 -209
-215 212
209 -212 215
-216 -214
-216 -215
214 215 216
-217 -209
-217 -212
209 212 217
-218 -213
-218 -217
213 217 218
-219 -39
-219 40
39 -40 219
-220 39
-220 -40
-39 40 220
-221 -219
-221 -220
219 220 221
-222 39
-222 40
-39 -40 222
-223 218
-223 -221
-218 221 223
-224 -218
-224 221
218 -221 224
-225 -223
-225 -224
223 224 225
-226 -218
-226 -221
218 221 226
-227 -222
-227 -226
222 226 227
-228 -40
-228 41
40 -41 228
-229 40
-229 -41
-40 41 229
-230 -228
-230 -229
228 229 230
-231 40
-231 41
-40 -41 231
-232 227
-232 -230
-227 230 232
-233 -227
-233 230
227 -230 233
-234 -232
-234 -233
232 233 234
-235 -227
-235 -230
227 230 235
-236 -231
-236 -235
231 235 236
-237 -41
-237 42
41 -42 237
-238 41
-238 -42
-41 42 238
-239 -237
-239 -238
237 238 239
-240 41
-240 42
-41 -42 240
-241 236
-241 -239
-236 239 241
-242 -236
-242 239
236 -239 242
-243 -241
-243 -242
241 242 243
-244 -236
-244 -239
236 239 244
-245 -240
-245 -244
240 244 245
-246 -42
-246 43
42 -43 246
-247 42
-247 -43
-42 43 247
-248 -246
-248 -247
246 247 248
-249 42
-249 43
-42 -43 249
-250 245
-250 -248
-245 248 250
-251 -245
-251 248
245 -248 251
-252 -250
-252 -251
250 251 252
-253 -245
-253 -248
245 248 253
-254 -249
-254 -253
249 253 254
-255 -43
-255 44
43 -44 255
-256 43
-256 -44
-43 44 256
-257 -255
-257 -256
255 256 257
-258 43
-258 44
-43 -44 258
-259 254
-259 -257
-254 257 259
-260 -254
-260 257
254 -257 260
-261 -259
-261 -260
259 260 261
-262 -254
-262 -257
254 257 262
-263 -258
-263 -262
258 262 263
-264 -44
-264 45
44 -45 264
-265 44
-265 -45
-44 45 265
-266 -264
-266 -265
264 265 266
-267 44
-267 45
-44 -45 267
-268 263
-268 -266
-263 266 268
-269 -263
-269 266
263 -266 269
-270 -268
-270 -269
268 269 270
-271 -263
-271 -266
263 266 271
-272 -267
-272 -271
267 271 272
-273 -45
-273 46
45 -46 273
-274 45
-274 -46
-45 46 274
-275 -273
-275 -274
273 274 275
-276 45
-276 46
-45 -46 276
-277 272
-277 -275
-272 275 277
-278 -272
-278 275
272 -275 278
-279 -277
-279 -278
277 278 279
-280 -272
-280 -275
272 275 280
-281 -276
-281 -280
276 280 281
-282 -46
-282 47
46 -47 282
-283 46
-283 -47
-46 47 283
-284 -282
-284 -283
282 283 284
-285 46
-285 47
-46 -47 285
-286 281
-286 -284
-281 284 286
-287 -281
-287 284
281 -284 287
-288 -286
-288 -287
286 287 288
-289 -281
-289 -284
281 284 289
-290 -285
-290 -289
285 289 290
-291 -47
-291 48
47 -48 291
-292 47
-292 -48
-47 48 292
-293 -291
-293 -292
291 292 293
-294 47
-294 48
-47 -48 294
-295 290
-295 -293
-290 293 295
-296 -290
-296 293
290 -293 296
-297 -295
-297 -296
295 296 297
-298 -290
-298 -293
290 293 298
-299 -294
-299 -298
294 298 299
-300 -48
-300 49
48 -49 300
-301 48
-301 -49
-48 49 301
-302 -300
-302 -301
300 301 302
-303 48
-303 49
-48 -49 303
-304 299
-304 -302
-299 302 304
-305 -299
-305 302
299 -302 305
-306 -304
-306 -305
304 305 306
-307 -299
-307 -302
299 302 307
-308 -303
-308 -307
303 307 308
-309 -49
-309 50
49 -50 309
-310 49
-310 -50
-49 50 310
-311 -309
-311 -310
309 310 311
-312 49
-312 50
-49 -50 312
-313 308
-313 -311
-308 311 313
-314 -308
-314 311
308 -311 314
-315 -313
-315 -314
313 314 315
-316 -308
-316 -311
308 311 316
-317 -312
-317 -316
312 316 317
-318 -50
-318 51
50 -51 318
-319 50
-319 -51
-50 51 319
-320 -318
-320 -319
318 319 320
-321 50
-321 51
-50 -51 321
-322 317
-322 -320
-317 320 322
-323 -317
-323 320
317 -320 323
-324 -322
-324 -323
322 323 324
-325 -317
-325 -320
317 320 325
-326 -321
-326 -325
321 325 326
-327 -51
-327 52
51 -52 327
-328 51
-328 -52
-51 52 328
-329 -327
-329 -328
327 328 329
-330 51
-330 52
-51 -52 330
-331 326
-331 -329
-326 329 331
-332 -326
-332 329
326 -329 332
-333 -331
-333 -332
331 332 333
-334 -326
-334 -329
326 329 334
-335 -330
-335 -334
330 334 335
-336 -52
-336 53
52 -53 336
-337 52
-337 -53
-52 53 337
-338 -336
-338 -337
336 337 338
-339 52
-339 53
-52 -53 339
-340 335
-340 -338
-335 338 340
-341 -335
-341 338
335 -338 341
-342 -340
-342 -341
340 341 342
-343 -335
-343 -338
335 338 343
-344 -339
-344 -343
339 343 344
-345 -53
-345 54
53 -54 345
-346 53
-346 -54
-53 54 346
-347 -345
-347 -346
345 346 347
-348 53
-348 54
-53 -54 348
-349 344
-349 -347
-344 347 349
-350 -344
-350 347
344 -347 350
-351 -349
-351 -350
349 350 351
-352 -344
-352 -347
344 347 352
-353 -348
-353 -352
348 352 353
-354 24
-354 -90
-24 90 354
-355 -24
-355 26
24 -26 355
-356 -354
-356 -355
354 355 356
-357 24
-357 -99
-24 99 357
-358 -24
-358 27
24 -27 358
-359 -357
-359 -358
357 358 359
-360 24
-360 -108
-24 108 360
-361 -24
-361 28
24 -28 361
-362 -360
-362 -361
360 361 362
-363 24
-363 -117
-24 117 363
-364 -24
-364 29
24 -29 364
-365 -363
-365 -364
363 364 365
-366 24
-366 -126
-24 126 366
-367 -24
-367 30
24 -30 367
-368 -366
-368 -367
366 367 368
-369 24
-369 -135
-24 135 369
-370 -24
-370 31
24 -31 370
-371 -369
-371 -370
369 370 371
-372 24
-372 -144
-24 144 372
-373 -24
-373 32
24 -32 373
-374 -372
-374 -373
372 373 374
-375 24
-375 -153
-24 153 375
-376 -24
-376 33
24 -33 376
-377 -375
-377 -376
375 376 377
-378 24
-378 -162
-24 162 378
-379 -24
-379 34
24 -34 379
-380 -378
-380 -379
378 379 380
-381 24
-381 -171
-24 171 381
-382 -24
-382 35
24 -35 382
-383 -381
-383 -382
381 382 383
-384 24
-384 -180
-24 180 384
-385 -24
-385 36
24 -36 385
-386 -384
-386 -385
384 385 386
-387 24
-387 -189
-24 189 387
-388 -24
-388 37
24 -37 388
-389 -387
-389 -388
387 388 389
-390 24
-390 -198
-24 198 390
-391 -24
-391 38
24 -38 391
-392 -390
-392 -391
390 391 392
-393 24
-393 -207
-24 207 393
-394 -24
-394 39
24 -39 394
-395 -393
-395 -394
393 394 395
-396 24
-396 -216
-24 216 396
-397 -24
-397 40
24 -40 397
-398 -396
-398 -397
396 397 398
-399 24
-399 -225
-24 225 399
-400 -24
-400 41
24 -41 400
-401 -399
-401 -400
399 400 401
-402 24
-402 -234
-24 234 402
-403 -24
-403 42
24 -42 403
-404 -402
-404 -403
402 403 404
-405 24
-405 -243
-24 243 405
-406 -24
-406 43
24 -43 406
-407 -405
-407 -406
405 406 407
-408 24
-408 -252
-24 252 408
-409 -24
-409 44
24 -44 409
-410 -408
-410 -409
408 409 410
-411 24
-411 -261
-24 261 411
-412 -24
-412 45
24 -45 412
-413 -411
-413 -412
411 412 413
-414 24
-414 -270
-24 270 414
-415 -24
-415 46
24 -46 415
-416 -414
-416 -415
414 415 416
-417 24
-417 -279
-24 279 417
-418 -24
-418 47
24 -47 418
-419 -417
-419 -418
417 418 419
-420 24
-420 -288
-24 288 420
-421 -24
-421 48
24 -48 421
-422 -420
-422 -421
420 421 422
-423 24
-423 -297
-24 297 423
-424 -24
-424 49
24 -49 424
-425 -423
-425 -424
423 424 425
-426 24
-426 -306
-24 306 426
-427 -24
-427 50
24 -50 427
-428 -426
-428 -427
426 427 428
-429 24
-429 -315
-24 315 429
-430 -24
-430 51
24 -51 430
-431 -429
-431 -430
429 430 431
-432 24
-432 -324
-24 324 432
-433 -24
-433 52
24 -52 433
-434 -432
-434 -433
432 433 434
-435 24
-435 -333
-24 333 435
-436 -24
-436 53
24 -53 436
-437 -435
-437 -436
435 436 437
-438 24
-438 -342
-24 342 438
-439 -24
-439 54
24 -54 439
-440 -438
-440 -439
438 439 440
-441 24
-441 -351
-24 351 441
-442 1
-442 83
-1 -83 442
-443 -83
-443 84
83 -84 443
-444 -442
-444 -443
442 443 444
-445 2
-445 83
-2 -83 445
-446 -83
-446 -356
83 356 446
-447 -445
-447 -446
445 446 447
-448 3
-448 83
-3 -83 448
-449 -83
-449 -359
83 359 449
-450 -448
-450 -449
448 449 450
-451 4
-451 83
-4 -83 451
-452 -83
-452 -362
83 362 452
-453 -451
-453 -452
451 452 453
-454 5
-454 83
-5 -83 454
-455 -83
-455 -365
83 365 455
-456 -454
-456 -455
454 455 456
-457 6
-457 83
-6 -83 457
-458 -83
-458 -368
83 368 458
-459 -457
-459 -458
457 458 459
-460 7
-460 83
-7 -83 460
-461 -83
-461 -371
83 371 461
-462 -460
-462 -461
460 461 462
-463 8
-463 83
-8 -83 463
-464 -83
-464 -374
83 374 464
-465 -463
-465 -464
463 464 465
-466 9
-466 83
-9 -83 466
-467 -83
-467 -377
83 377 467
-468 -466
-468 -467
466 467 468
-469 10
-469 83
-10 -83 469
-470 -83
-470 -380
83 380 470
-471 -469
-471 -470
469 470 471
-472 11
-472 83
-11 -83 472
-473 -83
-473 -383
83 383 473
-474 -472
-474 -473
472 473 474
-475 12
-475 83
-12 -83 475
-476 -83
-476 -386
83 386 476
-477 -475
-477 -476
475 476 477
-478 13
-478 83
-13 -83 478
-479 -83
-479 -389
83 389 479
-480 -478
-480 -479
478 479 480
-481 14
-481 83
-14 -83 481
-482 -83
-482 -392
83 392 482
-483 -481
-483 -482
481 482 483
-484 15
-484 83
-15 -83 484
-485 -83
-485 -395
83 395 485
-486 -484
-486 -485
484 485 486
-487 16
-487 83
-16 -83 487
-488 -83
-488 -398
83 398 488
-489 -487
-489 -488
487 488 489
-490 17
-490 83
-17 -83 490
-491 -83
-491 -401
83 401 491
-492 -490
-492 -491
490 491 492
-493 18
-493 83
-18 -83 493
-494 -83
-494 -404
83 404 494
-495 -493
-495 -494
493 494 495
-496 19
-496 83
-19 -83 496
-497 -83
-497 -407
83 407 497
-498 -496
-498 -497
496 497 498
-499 20
-499 83
-20 -83 499
-500 -83
-500 -410
83 410 500
-501 -499
-501 -500
499 500 501
-502 21
-502 83
-21 -83 502
-503 -83
-503 -413
83 413 503
-504 -502
-504 -503
502 503 504
-505 22
-505 83
-22 -83 505
-506 -83
-506 -416
83 416 506
-507 -505
-507 -506
505 506 507
-508 23
-508 83
-23 -83 508
-509 -83
-509 -419
83 419 509
-510 -508
-510 -509
508 509 510
-511 -83
-511 -422
83 422 511
-512 -83
-512 -425
83 425 512
-513 -83
-513 -428
83 428 513
-514 -83
-514 -431
83 431 514
-515 -83
-515 -434
83 434 515
-516 -83
-516 -437
83 437 516
-517 -83
-517 -440
83 440 517
-518 -83
-518 441
83 -441 518
-519 -54
-519 353
54 -353 519
-520 24
-520 -519
-24 519 520
520
